10	10
8 1	4 2	5 1	3 1	2 1	9 1	0 1	6 4	7 1	1 3
1 1	4 1	2 2	7 4	0 1	5 1	9 1	8 1	3 4	6 1
4 2	6 4	7 1	5 2	3 3	0 1	1 2	8 4	9 1	2 2
9 2	3 1	6 1	0 3	7 2	5 1	2 1	8 2	1 1	4 3
4 1	3 3	7 4	9 1	1 1	5 4	0 1	6 3	2 1	8 1
1 3	5 1	0 3	7 1	3 1	6 2	8 4	2 7	4 1	9 1
7 1	4 2	9 3	2 1	8 3	3 1	0 7	6 1	1 1	5 2
9 2	6 2	0 3	1 4	5 2	2 1	3 2	7 3	8 2	4 1
7 2	1 1	9 2	8 1	3 3	5 3	0 3	6 2	4 4	2 1
4 1	1 1	0 1	7 3	2 4	8 1	5 1	9 4	3 2	6 3
